(set-info :smt-lib-version 2.6)
(set-logic AUFBVFPDTNIRA)
(set-info :source |
Generated by: AdaCore
Generated on: 2020-03-06
Generator: SPARK
Application: Program verification for Ada
Target solver: Z3
|)
(set-info :license "https://creativecommons.org/licenses/by/4.0/")
(set-info :category "industrial")
(set-info :status unknown)
;;; generated by SMT-LIB2 driver
;;; SMT-LIB2 driver: bit-vectors, common part
;;; SMT-LIB2: integer arithmetic
(declare-sort string 0)

(declare-datatypes () ((tuple0 (Tuple0))))
(declare-sort us_private 0)

(declare-fun private__bool_eq (us_private us_private) Bool)

(declare-const us_null_ext__ us_private)

(declare-sort us_type_of_heap 0)

(declare-datatypes ()
((us_type_of_heap__ref
 (us_type_of_heap__refqtmk (us_type_of_heap__content us_type_of_heap)))))
(declare-sort us_image 0)

(declare-datatypes () ((int__ref (int__refqtmk (int__content Int)))))
(declare-datatypes () ((bool__ref (bool__refqtmk (bool__content Bool)))))
(declare-datatypes ()
((us_fixed__ref (us_fixed__refqtmk (us_fixed__content Int)))))
(declare-datatypes () ((real__ref (real__refqtmk (real__content Real)))))
(declare-datatypes ()
((us_private__ref (us_private__refqtmk (us_private__content us_private)))))
(define-fun int__ref___projection ((a int__ref)) Int (int__content a))

(define-fun us_fixed__ref___projection ((a us_fixed__ref)) Int (us_fixed__content
                                                               a))

(define-fun bool__ref___projection ((a bool__ref)) Bool (bool__content a))

(define-fun real__ref___projection ((a real__ref)) Real (real__content a))

(define-fun us_private__ref___projection ((a us_private__ref)) us_private 
  (us_private__content a))

(declare-fun nth ((_ BitVec 16) Int) Bool)

(declare-fun lsr ((_ BitVec 16) Int) (_ BitVec 16))

(declare-fun asr ((_ BitVec 16) Int) (_ BitVec 16))

(declare-fun lsl ((_ BitVec 16) Int) (_ BitVec 16))

(define-fun abs1 ((x Int)) Int (ite (<= 0 x) x (- x)))

;; Abs_le
  (assert
  (forall ((x Int) (y Int)) (= (<= (abs1 x) y) (and (<= (- y) x) (<= x y)))))

;; Abs_pos
  (assert (forall ((x Int)) (<= 0 (abs1 x))))

(declare-fun rotate_right1 ((_ BitVec 16) Int) (_ BitVec 16))

(declare-fun rotate_left1 ((_ BitVec 16) Int) (_ BitVec 16))

(declare-fun pow2 (Int) Int)

(define-fun to_int1 ((x (_ BitVec 16))) Int (ite (bvsge x (_ bv0 16))
                                            (bv2int x)
                                            (- (- 65536 (bv2int x)))))

(define-fun uint_in_range ((i Int)) Bool (and (<= 0 i) (<= i 65535)))

(declare-fun nth_bv ((_ BitVec 16) (_ BitVec 16)) Bool)

(declare-fun eq_sub_bv ((_ BitVec 16) (_ BitVec 16) (_ BitVec 16)
  (_ BitVec 16)) Bool)

(define-fun eq_sub ((a (_ BitVec 16)) (b (_ BitVec 16)) (i Int)
  (n Int)) Bool (forall ((j Int))
                (=> (and (<= i j) (< j (+ i n))) (= (nth a j) (nth b j)))))

(declare-datatypes () ((t__ref (t__refqtmk (t__content (_ BitVec 16))))))
(declare-fun power ((_ BitVec 16) Int) (_ BitVec 16))

(define-fun bv_min ((x (_ BitVec 16))
  (y (_ BitVec 16))) (_ BitVec 16) (ite (bvule x y) x y))

(define-fun bv_max ((x (_ BitVec 16))
  (y (_ BitVec 16))) (_ BitVec 16) (ite (bvule x y) y x))

(define-fun min ((x Int) (y Int)) Int (ite (<= x y) x y))

(define-fun max ((x Int) (y Int)) Int (ite (<= x y) y x))

;; Min_r
  (assert (forall ((x Int) (y Int)) (=> (<= y x) (= (min x y) y))))

;; Max_l
  (assert (forall ((x Int) (y Int)) (=> (<= y x) (= (max x y) x))))

;; Min_comm
  (assert (forall ((x Int) (y Int)) (= (min x y) (min y x))))

;; Max_comm
  (assert (forall ((x Int) (y Int)) (= (max x y) (max y x))))

;; Min_assoc
  (assert
  (forall ((x Int) (y Int) (z Int)) (= (min (min x y) z) (min x (min y z)))))

;; Max_assoc
  (assert
  (forall ((x Int) (y Int) (z Int)) (= (max (max x y) z) (max x (max y z)))))

(declare-const l Int)

(declare-const attr__ATTRIBUTE_ADDRESS Int)

(declare-fun nth1 ((_ BitVec 8) Int) Bool)

(declare-fun lsr1 ((_ BitVec 8) Int) (_ BitVec 8))

(declare-fun asr1 ((_ BitVec 8) Int) (_ BitVec 8))

(declare-fun lsl1 ((_ BitVec 8) Int) (_ BitVec 8))

(declare-fun rotate_right2 ((_ BitVec 8) Int) (_ BitVec 8))

(declare-fun rotate_left2 ((_ BitVec 8) Int) (_ BitVec 8))

(define-fun to_int2 ((x (_ BitVec 8))) Int (ite (bvsge x (_ bv0 8))
                                           (bv2int x) (- (- 256 (bv2int x)))))

(define-fun uint_in_range1 ((i Int)) Bool (and (<= 0 i) (<= i 255)))

(declare-fun nth_bv1 ((_ BitVec 8) (_ BitVec 8)) Bool)

(declare-fun eq_sub_bv1 ((_ BitVec 8) (_ BitVec 8) (_ BitVec 8)
  (_ BitVec 8)) Bool)

(define-fun eq_sub1 ((a (_ BitVec 8)) (b (_ BitVec 8)) (i Int)
  (n Int)) Bool (forall ((j Int))
                (=> (and (<= i j) (< j (+ i n))) (= (nth1 a j) (nth1 b j)))))

(declare-datatypes () ((t__ref1 (t__refqtmk1 (t__content1 (_ BitVec 8))))))
(declare-fun power1 ((_ BitVec 8) Int) (_ BitVec 8))

(define-fun bv_min1 ((x (_ BitVec 8))
  (y (_ BitVec 8))) (_ BitVec 8) (ite (bvule x y) x y))

(define-fun bv_max1 ((x (_ BitVec 8))
  (y (_ BitVec 8))) (_ BitVec 8) (ite (bvule x y) y x))

(declare-sort stream_element 0)

(declare-const attr__ATTRIBUTE_MODULUS (_ BitVec 8))

(declare-fun attr__ATTRIBUTE_IMAGE ((_ BitVec 8)) us_image)

(declare-fun attr__ATTRIBUTE_VALUE__pre_check (us_image) Bool)

(declare-fun attr__ATTRIBUTE_VALUE (us_image) (_ BitVec 8))

(declare-fun user_eq (stream_element stream_element) Bool)

(declare-const dummy stream_element)

(declare-datatypes ()
((stream_element__ref
 (stream_element__refqtmk (stream_element__content stream_element)))))
(define-fun stream_element__ref_stream_element__content__projection ((a stream_element__ref)) stream_element 
  (stream_element__content a))

(declare-fun to_rep (stream_element) (_ BitVec 8))

(declare-fun of_rep ((_ BitVec 8)) stream_element)

;; inversion_axiom
  (assert
  (forall ((x stream_element))
  (! (= (of_rep (to_rep x)) x) :pattern ((to_rep x)) )))

;; range_axiom
  (assert true)

;; coerce_axiom
  (assert
  (forall ((x (_ BitVec 8)))
  (! (= (to_rep (of_rep x)) x) :pattern ((to_rep (of_rep x))) )))

(define-fun to_int3 ((x stream_element)) Int (bv2int (to_rep x)))

;; range_int_axiom
  (assert
  (forall ((x stream_element)) (! (uint_in_range1
  (to_int3 x)) :pattern ((to_int3 x)) )))

(declare-datatypes ()
((map__ref (map__refqtmk (map__content (Array Int stream_element))))))
(declare-fun slide ((Array Int stream_element) Int
  Int) (Array Int stream_element))

;; slide_eq
  (assert
  (forall ((a (Array Int stream_element)))
  (forall ((first Int))
  (! (= (slide a first first) a) :pattern ((slide a first first)) ))))

;; slide_def
  (assert
  (forall ((a (Array Int stream_element)))
  (forall ((old_first Int))
  (forall ((new_first Int))
  (forall ((i Int))
  (! (= (select (slide a old_first new_first) i) (select a (- i (- new_first old_first)))) :pattern ((select 
  (slide a old_first new_first) i)) ))))))

(define-fun bool_eq ((a (Array Int stream_element)) (a__first Int)
  (a__last Int) (b (Array Int stream_element)) (b__first Int)
  (b__last Int)) Bool (ite (and
                           (ite (<= a__first a__last)
                           (and (<= b__first b__last)
                           (= (- a__last a__first) (- b__last b__first)))
                           (< b__last b__first))
                           (forall ((temp___idx_154 Int))
                           (=>
                           (and (<= a__first temp___idx_154)
                           (<= temp___idx_154 a__last))
                           (= (to_rep (select a temp___idx_154)) (to_rep
                                                                 (select b (+ (- b__first a__first) temp___idx_154)))))))
                      true false))

;; bool_eq_rev
  (assert
  (forall ((a (Array Int stream_element)) (b (Array Int stream_element)))
  (forall ((a__first Int) (a__last Int) (b__first Int) (b__last Int))
  (=> (= (bool_eq b b__first b__last a a__first a__last) true)
  (and
  (ite (<= a__first a__last)
  (and (<= b__first b__last) (= (- a__last a__first) (- b__last b__first)))
  (< b__last b__first))
  (forall ((temp___idx_154 Int))
  (=> (and (<= a__first temp___idx_154) (<= temp___idx_154 a__last))
  (= (to_rep (select a temp___idx_154)) (to_rep
                                        (select b (+ (- b__first a__first) temp___idx_154)))))))))))

(declare-fun internal_to_buffer (Int) (Array Int stream_element))

(declare-fun internal_to_buffer__function_guard ((Array Int stream_element)
  Int) Bool)

(declare-sort source 0)

(declare-fun sourceqtint (source) Int)

;; source'axiom
  (assert
  (forall ((i source))
  (and (<= 0 (sourceqtint i)) (<= (sourceqtint i) 65535))))

(define-fun in_range ((x Int)) Bool (and (<= 0 x) (<= x 65535)))

(declare-fun attr__ATTRIBUTE_IMAGE1 (Int) us_image)

(declare-fun attr__ATTRIBUTE_VALUE__pre_check1 (us_image) Bool)

(declare-fun attr__ATTRIBUTE_VALUE1 (us_image) Int)

(declare-fun user_eq1 (source source) Bool)

(declare-const dummy1 source)

(declare-datatypes ()
((source__ref (source__refqtmk (source__content source)))))
(define-fun source__ref_source__content__projection ((a source__ref)) source 
  (source__content a))

(define-fun dynamic_invariant ((temp___expr_358 Int)
  (temp___is_init_354 Bool) (temp___skip_constant_355 Bool)
  (temp___do_toplevel_356 Bool)
  (temp___do_typ_inv_357 Bool)) Bool (=>
                                     (or (= temp___is_init_354 true)
                                     (<= 0 65535)) (in_range
                                     temp___expr_358)))

;; internal_to_buffer__post_axiom
  (assert true)

(declare-fun swap_bytes ((_ BitVec 16)) (_ BitVec 16))

(declare-fun swap_bytes__function_guard ((_ BitVec 16) (_ BitVec 16)) Bool)

(declare-sort unsigned_16 0)

(declare-const attr__ATTRIBUTE_MODULUS1 (_ BitVec 16))

(declare-fun attr__ATTRIBUTE_IMAGE2 ((_ BitVec 16)) us_image)

(declare-fun attr__ATTRIBUTE_VALUE__pre_check2 (us_image) Bool)

(declare-fun attr__ATTRIBUTE_VALUE2 (us_image) (_ BitVec 16))

(declare-fun user_eq2 (unsigned_16 unsigned_16) Bool)

(declare-const dummy2 unsigned_16)

(declare-datatypes ()
((unsigned_16__ref (unsigned_16__refqtmk (unsigned_16__content unsigned_16)))))
(define-fun unsigned_16__ref_unsigned_16__content__projection ((a unsigned_16__ref)) unsigned_16 
  (unsigned_16__content a))

(define-fun dynamic_invariant1 ((temp___expr_450 (_ BitVec 16))
  (temp___is_init_446 Bool) (temp___skip_constant_447 Bool)
  (temp___do_toplevel_448 Bool) (temp___do_typ_inv_449 Bool)) Bool true)

;; swap_bytes__post_axiom
  (assert
  (forall ((b (_ BitVec 16)))
  (! (=> (dynamic_invariant1 b true true true true)
     (let ((result (swap_bytes b)))
     (=> (swap_bytes__function_guard result b) (dynamic_invariant1 result
     true false true true)))) :pattern ((swap_bytes b)) )))

(declare-sort stream_element_count 0)

(declare-fun stream_element_countqtint (stream_element_count) Int)

;; stream_element_count'axiom
  (assert
  (forall ((i stream_element_count))
  (and (<= 0 (stream_element_countqtint i))
  (<= (stream_element_countqtint i) 9223372036854775807))))

(define-fun in_range1 ((x Int)) Bool (and (<= 0 x)
                                     (<= x 9223372036854775807)))

(declare-fun attr__ATTRIBUTE_IMAGE3 (Int) us_image)

(declare-fun attr__ATTRIBUTE_VALUE__pre_check3 (us_image) Bool)

(declare-fun attr__ATTRIBUTE_VALUE3 (us_image) Int)

(declare-fun user_eq3 (stream_element_count stream_element_count) Bool)

(declare-const dummy3 stream_element_count)

(declare-datatypes ()
((stream_element_count__ref
 (stream_element_count__refqtmk
 (stream_element_count__content stream_element_count)))))
(define-fun stream_element_count__ref_stream_element_count__content__projection ((a stream_element_count__ref)) stream_element_count 
  (stream_element_count__content a))

(define-fun dynamic_invariant2 ((temp___expr_209 Int)
  (temp___is_init_205 Bool) (temp___skip_constant_206 Bool)
  (temp___do_toplevel_207 Bool)
  (temp___do_typ_inv_208 Bool)) Bool (=>
                                     (or (= temp___is_init_205 true)
                                     (<= 0 9223372036854775807)) (in_range1
                                     temp___expr_209)))

(define-fun dynamic_invariant3 ((temp___expr_186 (_ BitVec 8))
  (temp___is_init_182 Bool) (temp___skip_constant_183 Bool)
  (temp___do_toplevel_184 Bool) (temp___do_typ_inv_185 Bool)) Bool true)

;; Assume
  (assert (dynamic_invariant2 l true false true true))

;; Assume
  (assert (< l 65535))

(define-fun o () Int l)

(assert
;; defqtvc
 ;; File "polyorb_hi-messages.ads", line 67, characters 0-0
  (not (uint_in_range o)))
(check-sat)
